c description: Tseitin formula on Random 6-regular graph of 25 vertices, with odd charge
c generator: CNFgen (0.9.2)
c copyright: (C) 2012-2022 Massimo Lauria <massimo.lauria@uniroma1.it>
c url: https://massimolauria.net/cnfgen
c command line: cnfgen tseitin 25 6
c
p cnf 75 800
1 2 3 4 5 6 0
1 2 3 4 -5 -6 0
1 2 3 -4 5 -6 0
1 2 3 -4 -5 6 0
1 2 -3 4 5 -6 0
1 2 -3 4 -5 6 0
1 2 -3 -4 5 6 0
1 2 -3 -4 -5 -6 0
1 -2 3 4 5 -6 0
1 -2 3 4 -5 6 0
1 -2 3 -4 5 6 0
1 -2 3 -4 -5 -6 0
1 -2 -3 4 5 6 0
1 -2 -3 4 -5 -6 0
1 -2 -3 -4 5 -6 0
1 -2 -3 -4 -5 6 0
-1 2 3 4 5 -6 0
-1 2 3 4 -5 6 0
-1 2 3 -4 5 6 0
-1 2 3 -4 -5 -6 0
-1 2 -3 4 5 6 0
-1 2 -3 4 -5 -6 0
-1 2 -3 -4 5 -6 0
-1 2 -3 -4 -5 6 0
-1 -2 3 4 5 6 0
-1 -2 3 4 -5 -6 0
-1 -2 3 -4 5 -6 0
-1 -2 3 -4 -5 6 0
-1 -2 -3 4 5 -6 0
-1 -2 -3 4 -5 6 0
-1 -2 -3 -4 5 6 0
-1 -2 -3 -4 -5 -6 0
7 8 9 10 11 -12 0
7 8 9 10 -11 12 0
7 8 9 -10 11 12 0
7 8 9 -10 -11 -12 0
7 8 -9 10 11 12 0
7 8 -9 10 -11 -12 0
7 8 -9 -10 11 -12 0
7 8 -9 -10 -11 12 0
7 -8 9 10 11 12 0
7 -8 9 10 -11 -12 0
7 -8 9 -10 11 -12 0
7 -8 9 -10 -11 12 0
7 -8 -9 10 11 -12 0
7 -8 -9 10 -11 12 0
7 -8 -9 -10 11 12 0
7 -8 -9 -10 -11 -12 0
-7 8 9 10 11 12 0
-7 8 9 10 -11 -12 0
-7 8 9 -10 11 -12 0
-7 8 9 -10 -11 12 0
-7 8 -9 10 11 -12 0
-7 8 -9 10 -11 12 0
-7 8 -9 -10 11 12 0
-7 8 -9 -10 -11 -12 0
-7 -8 9 10 11 -12 0
-7 -8 9 10 -11 12 0
-7 -8 9 -10 11 12 0
-7 -8 9 -10 -11 -12 0
-7 -8 -9 10 11 12 0
-7 -8 -9 10 -11 -12 0
-7 -8 -9 -10 11 -12 0
-7 -8 -9 -10 -11 12 0
13 14 15 16 17 -18 0
13 14 15 16 -17 18 0
13 14 15 -16 17 18 0
13 14 15 -16 -17 -18 0
13 14 -15 16 17 18 0
13 14 -15 16 -17 -18 0
13 14 -15 -16 17 -18 0
13 14 -15 -16 -17 18 0
13 -14 15 16 17 18 0
13 -14 15 16 -17 -18 0
13 -14 15 -16 17 -18 0
13 -14 15 -16 -17 18 0
13 -14 -15 16 17 -18 0
13 -14 -15 16 -17 18 0
13 -14 -15 -16 17 18 0
13 -14 -15 -16 -17 -18 0
-13 14 15 16 17 18 0
-13 14 15 16 -17 -18 0
-13 14 15 -16 17 -18 0
-13 14 15 -16 -17 18 0
-13 14 -15 16 17 -18 0
-13 14 -15 16 -17 18 0
-13 14 -15 -16 17 18 0
-13 14 -15 -16 -17 -18 0
-13 -14 15 16 17 -18 0
-13 -14 15 16 -17 18 0
-13 -14 15 -16 17 18 0
-13 -14 15 -16 -17 -18 0
-13 -14 -15 16 17 18 0
-13 -14 -15 16 -17 -18 0
-13 -14 -15 -16 17 -18 0
-13 -14 -15 -16 -17 18 0
13 19 20 21 22 23 0
13 19 20 21 -22 -23 0
13 19 20 -21 22 -23 0
13 19 20 -21 -22 23 0
13 19 -20 21 22 -23 0
13 19 -20 21 -22 23 0
13 19 -20 -21 22 23 0
13 19 -20 -21 -22 -23 0
13 -19 20 21 22 -23 0
13 -19 20 21 -22 23 0
13 -19 20 -21 22 23 0
13 -19 20 -21 -22 -23 0
13 -19 -20 21 22 23 0
13 -19 -20 21 -22 -23 0
13 -19 -20 -21 22 -23 0
13 -19 -20 -21 -22 23 0
-13 19 20 21 22 -23 0
-13 19 20 21 -22 23 0
-13 19 20 -21 22 23 0
-13 19 20 -21 -22 -23 0
-13 19 -20 21 22 23 0
-13 19 -20 21 -22 -23 0
-13 19 -20 -21 22 -23 0
-13 19 -20 -21 -22 23 0
-13 -19 20 21 22 23 0
-13 -19 20 21 -22 -23 0
-13 -19 20 -21 22 -23 0
-13 -19 20 -21 -22 23 0
-13 -19 -20 21 22 -23 0
-13 -19 -20 21 -22 23 0
-13 -19 -20 -21 22 23 0
-13 -19 -20 -21 -22 -23 0
24 25 26 27 28 -29 0
24 25 26 27 -28 29 0
24 25 26 -27 28 29 0
24 25 26 -27 -28 -29 0
24 25 -26 27 28 29 0
24 25 -26 27 -28 -29 0
24 25 -26 -27 28 -29 0
24 25 -26 -27 -28 29 0
24 -25 26 27 28 29 0
24 -25 26 27 -28 -29 0
24 -25 26 -27 28 -29 0
24 -25 26 -27 -28 29 0
24 -25 -26 27 28 -29 0
24 -25 -26 27 -28 29 0
24 -25 -26 -27 28 29 0
24 -25 -26 -27 -28 -29 0
-24 25 26 27 28 29 0
-24 25 26 27 -28 -29 0
-24 25 26 -27 28 -29 0
-24 25 26 -27 -28 29 0
-24 25 -26 27 28 -29 0
-24 25 -26 27 -28 29 0
-24 25 -26 -27 28 29 0
-24 25 -26 -27 -28 -29 0
-24 -25 26 27 28 -29 0
-24 -25 26 27 -28 29 0
-24 -25 26 -27 28 29 0
-24 -25 26 -27 -28 -29 0
-24 -25 -26 27 28 29 0
-24 -25 -26 27 -28 -29 0
-24 -25 -26 -27 28 -29 0
-24 -25 -26 -27 -28 29 0
14 24 30 31 32 -33 0
14 24 30 31 -32 33 0
14 24 30 -31 32 33 0
14 24 30 -31 -32 -33 0
14 24 -30 31 32 33 0
14 24 -30 31 -32 -33 0
14 24 -30 -31 32 -33 0
14 24 -30 -31 -32 33 0
14 -24 30 31 32 33 0
14 -24 30 31 -32 -33 0
14 -24 30 -31 32 -33 0
14 -24 30 -31 -32 33 0
14 -24 -30 31 32 -33 0
14 -24 -30 31 -32 33 0
14 -24 -30 -31 32 33 0
14 -24 -30 -31 -32 -33 0
-14 24 30 31 32 33 0
-14 24 30 31 -32 -33 0
-14 24 30 -31 32 -33 0
-14 24 30 -31 -32 33 0
-14 24 -30 31 32 -33 0
-14 24 -30 31 -32 33 0
-14 24 -30 -31 32 33 0
-14 24 -30 -31 -32 -33 0
-14 -24 30 31 32 -33 0
-14 -24 30 31 -32 33 0
-14 -24 30 -31 32 33 0
-14 -24 30 -31 -32 -33 0
-14 -24 -30 31 32 33 0
-14 -24 -30 31 -32 -33 0
-14 -24 -30 -31 32 -33 0
-14 -24 -30 -31 -32 33 0
30 34 35 36 37 38 0
30 34 35 36 -37 -38 0
30 34 35 -36 37 -38 0
30 34 35 -36 -37 38 0
30 34 -35 36 37 -38 0
30 34 -35 36 -37 38 0
30 34 -35 -36 37 38 0
30 34 -35 -36 -37 -38 0
30 -34 35 36 37 -38 0
30 -34 35 36 -37 38 0
30 -34 35 -36 37 38 0
30 -34 35 -36 -37 -38 0
30 -34 -35 36 37 38 0
30 -34 -35 36 -37 -38 0
30 -34 -35 -36 37 -38 0
30 -34 -35 -36 -37 38 0
-30 34 35 36 37 -38 0
-30 34 35 36 -37 38 0
-30 34 35 -36 37 38 0
-30 34 35 -36 -37 -38 0
-30 34 -35 36 37 38 0
-30 34 -35 36 -37 -38 0
-30 34 -35 -36 37 -38 0
-30 34 -35 -36 -37 38 0
-30 -34 35 36 37 38 0
-30 -34 35 36 -37 -38 0
-30 -34 35 -36 37 -38 0
-30 -34 35 -36 -37 38 0
-30 -34 -35 36 37 -38 0
-30 -34 -35 36 -37 38 0
-30 -34 -35 -36 37 38 0
-30 -34 -35 -36 -37 -38 0
7 39 40 41 42 -43 0
7 39 40 41 -42 43 0
7 39 40 -41 42 43 0
7 39 40 -41 -42 -43 0
7 39 -40 41 42 43 0
7 39 -40 41 -42 -43 0
7 39 -40 -41 42 -43 0
7 39 -40 -41 -42 43 0
7 -39 40 41 42 43 0
7 -39 40 41 -42 -43 0
7 -39 40 -41 42 -43 0
7 -39 40 -41 -42 43 0
7 -39 -40 41 42 -43 0
7 -39 -40 41 -42 43 0
7 -39 -40 -41 42 43 0
7 -39 -40 -41 -42 -43 0
-7 39 40 41 42 43 0
-7 39 40 41 -42 -43 0
-7 39 40 -41 42 -43 0
-7 39 40 -41 -42 43 0
-7 39 -40 41 42 -43 0
-7 39 -40 41 -42 43 0
-7 39 -40 -41 42 43 0
-7 39 -40 -41 -42 -43 0
-7 -39 40 41 42 -43 0
-7 -39 40 41 -42 43 0
-7 -39 40 -41 42 43 0
-7 -39 40 -41 -42 -43 0
-7 -39 -40 41 42 43 0
-7 -39 -40 41 -42 -43 0
-7 -39 -40 -41 42 -43 0
-7 -39 -40 -41 -42 43 0
8 25 44 45 46 47 0
8 25 44 45 -46 -47 0
8 25 44 -45 46 -47 0
8 25 44 -45 -46 47 0
8 25 -44 45 46 -47 0
8 25 -44 45 -46 47 0
8 25 -44 -45 46 47 0
8 25 -44 -45 -46 -47 0
8 -25 44 45 46 -47 0
8 -25 44 45 -46 47 0
8 -25 44 -45 46 47 0
8 -25 44 -45 -46 -47 0
8 -25 -44 45 46 47 0
8 -25 -44 45 -46 -47 0
8 -25 -44 -45 46 -47 0
8 -25 -44 -45 -46 47 0
-8 25 44 45 46 -47 0
-8 25 44 45 -46 47 0
-8 25 44 -45 46 47 0
-8 25 44 -45 -46 -47 0
-8 25 -44 45 46 47 0
-8 25 -44 45 -46 -47 0
-8 25 -44 -45 46 -47 0
-8 25 -44 -45 -46 47 0
-8 -25 44 45 46 47 0
-8 -25 44 45 -46 -47 0
-8 -25 44 -45 46 -47 0
-8 -25 44 -45 -46 47 0
-8 -25 -44 45 46 -47 0
-8 -25 -44 45 -46 47 0
-8 -25 -44 -45 46 47 0
-8 -25 -44 -45 -46 -47 0
1 26 48 49 50 51 0
1 26 48 49 -50 -51 0
1 26 48 -49 50 -51 0
1 26 48 -49 -50 51 0
1 26 -48 49 50 -51 0
1 26 -48 49 -50 51 0
1 26 -48 -49 50 51 0
1 26 -48 -49 -50 -51 0
1 -26 48 49 50 -51 0
1 -26 48 49 -50 51 0
1 -26 48 -49 50 51 0
1 -26 48 -49 -50 -51 0
1 -26 -48 49 50 51 0
1 -26 -48 49 -50 -51 0
1 -26 -48 -49 50 -51 0
1 -26 -48 -49 -50 51 0
-1 26 48 49 50 -51 0
-1 26 48 49 -50 51 0
-1 26 48 -49 50 51 0
-1 26 48 -49 -50 -51 0
-1 26 -48 49 50 51 0
-1 26 -48 49 -50 -51 0
-1 26 -48 -49 50 -51 0
-1 26 -48 -49 -50 51 0
-1 -26 48 49 50 51 0
-1 -26 48 49 -50 -51 0
-1 -26 48 -49 50 -51 0
-1 -26 48 -49 -50 51 0
-1 -26 -48 49 50 -51 0
-1 -26 -48 49 -50 51 0
-1 -26 -48 -49 50 51 0
-1 -26 -48 -49 -50 -51 0
19 27 31 34 48 -52 0
19 27 31 34 -48 52 0
19 27 31 -34 48 52 0
19 27 31 -34 -48 -52 0
19 27 -31 34 48 52 0
19 27 -31 34 -48 -52 0
19 27 -31 -34 48 -52 0
19 27 -31 -34 -48 52 0
19 -27 31 34 48 52 0
19 -27 31 34 -48 -52 0
19 -27 31 -34 48 -52 0
19 -27 31 -34 -48 52 0
19 -27 -31 34 48 -52 0
19 -27 -31 34 -48 52 0
19 -27 -31 -34 48 52 0
19 -27 -31 -34 -48 -52 0
-19 27 31 34 48 52 0
-19 27 31 34 -48 -52 0
-19 27 31 -34 48 -52 0
-19 27 31 -34 -48 52 0
-19 27 -31 34 48 -52 0
-19 27 -31 34 -48 52 0
-19 27 -31 -34 48 52 0
-19 27 -31 -34 -48 -52 0
-19 -27 31 34 48 -52 0
-19 -27 31 34 -48 52 0
-19 -27 31 -34 48 52 0
-19 -27 31 -34 -48 -52 0
-19 -27 -31 34 48 52 0
-19 -27 -31 34 -48 -52 0
-19 -27 -31 -34 48 -52 0
-19 -27 -31 -34 -48 52 0
2 35 44 53 54 -55 0
2 35 44 53 -54 55 0
2 35 44 -53 54 55 0
2 35 44 -53 -54 -55 0
2 35 -44 53 54 55 0
2 35 -44 53 -54 -55 0
2 35 -44 -53 54 -55 0
2 35 -44 -53 -54 55 0
2 -35 44 53 54 55 0
2 -35 44 53 -54 -55 0
2 -35 44 -53 54 -55 0
2 -35 44 -53 -54 55 0
2 -35 -44 53 54 -55 0
2 -35 -44 53 -54 55 0
2 -35 -44 -53 54 55 0
2 -35 -44 -53 -54 -55 0
-2 35 44 53 54 55 0
-2 35 44 53 -54 -55 0
-2 35 44 -53 54 -55 0
-2 35 44 -53 -54 55 0
-2 35 -44 53 54 -55 0
-2 35 -44 53 -54 55 0
-2 35 -44 -53 54 55 0
-2 35 -44 -53 -54 -55 0
-2 -35 44 53 54 -55 0
-2 -35 44 53 -54 55 0
-2 -35 44 -53 54 55 0
-2 -35 44 -53 -54 -55 0
-2 -35 -44 53 54 55 0
-2 -35 -44 53 -54 -55 0
-2 -35 -44 -53 54 -55 0
-2 -35 -44 -53 -54 55 0
28 36 53 56 57 -58 0
28 36 53 56 -57 58 0
28 36 53 -56 57 58 0
28 36 53 -56 -57 -58 0
28 36 -53 56 57 58 0
28 36 -53 56 -57 -58 0
28 36 -53 -56 57 -58 0
28 36 -53 -56 -57 58 0
28 -36 53 56 57 58 0
28 -36 53 56 -57 -58 0
28 -36 53 -56 57 -58 0
28 -36 53 -56 -57 58 0
28 -36 -53 56 57 -58 0
28 -36 -53 56 -57 58 0
28 -36 -53 -56 57 58 0
28 -36 -53 -56 -57 -58 0
-28 36 53 56 57 58 0
-28 36 53 56 -57 -58 0
-28 36 53 -56 57 -58 0
-28 36 53 -56 -57 58 0
-28 36 -53 56 57 -58 0
-28 36 -53 56 -57 58 0
-28 36 -53 -56 57 58 0
-28 36 -53 -56 -57 -58 0
-28 -36 53 56 57 -58 0
-28 -36 53 56 -57 58 0
-28 -36 53 -56 57 58 0
-28 -36 53 -56 -57 -58 0
-28 -36 -53 56 57 58 0
-28 -36 -53 56 -57 -58 0
-28 -36 -53 -56 57 -58 0
-28 -36 -53 -56 -57 58 0
20 39 49 59 60 61 0
20 39 49 59 -60 -61 0
20 39 49 -59 60 -61 0
20 39 49 -59 -60 61 0
20 39 -49 59 60 -61 0
20 39 -49 59 -60 61 0
20 39 -49 -59 60 61 0
20 39 -49 -59 -60 -61 0
20 -39 49 59 60 -61 0
20 -39 49 59 -60 61 0
20 -39 49 -59 60 61 0
20 -39 49 -59 -60 -61 0
20 -39 -49 59 60 61 0
20 -39 -49 59 -60 -61 0
20 -39 -49 -59 60 -61 0
20 -39 -49 -59 -60 61 0
-20 39 49 59 60 -61 0
-20 39 49 59 -60 61 0
-20 39 49 -59 60 61 0
-20 39 49 -59 -60 -61 0
-20 39 -49 59 60 61 0
-20 39 -49 59 -60 -61 0
-20 39 -49 -59 60 -61 0
-20 39 -49 -59 -60 61 0
-20 -39 49 59 60 61 0
-20 -39 49 59 -60 -61 0
-20 -39 49 -59 60 -61 0
-20 -39 49 -59 -60 61 0
-20 -39 -49 59 60 -61 0
-20 -39 -49 59 -60 61 0
-20 -39 -49 -59 60 61 0
-20 -39 -49 -59 -60 -61 0
3 15 50 62 63 64 0
3 15 50 62 -63 -64 0
3 15 50 -62 63 -64 0
3 15 50 -62 -63 64 0
3 15 -50 62 63 -64 0
3 15 -50 62 -63 64 0
3 15 -50 -62 63 64 0
3 15 -50 -62 -63 -64 0
3 -15 50 62 63 -64 0
3 -15 50 62 -63 64 0
3 -15 50 -62 63 64 0
3 -15 50 -62 -63 -64 0
3 -15 -50 62 63 64 0
3 -15 -50 62 -63 -64 0
3 -15 -50 -62 63 -64 0
3 -15 -50 -62 -63 64 0
-3 15 50 62 63 -64 0
-3 15 50 62 -63 64 0
-3 15 50 -62 63 64 0
-3 15 50 -62 -63 -64 0
-3 15 -50 62 63 64 0
-3 15 -50 62 -63 -64 0
-3 15 -50 -62 63 -64 0
-3 15 -50 -62 -63 64 0
-3 -15 50 62 63 64 0
-3 -15 50 62 -63 -64 0
-3 -15 50 -62 63 -64 0
-3 -15 50 -62 -63 64 0
-3 -15 -50 62 63 -64 0
-3 -15 -50 62 -63 64 0
-3 -15 -50 -62 63 64 0
-3 -15 -50 -62 -63 -64 0
9 32 40 59 62 -65 0
9 32 40 59 -62 65 0
9 32 40 -59 62 65 0
9 32 40 -59 -62 -65 0
9 32 -40 59 62 65 0
9 32 -40 59 -62 -65 0
9 32 -40 -59 62 -65 0
9 32 -40 -59 -62 65 0
9 -32 40 59 62 65 0
9 -32 40 59 -62 -65 0
9 -32 40 -59 62 -65 0
9 -32 40 -59 -62 65 0
9 -32 -40 59 62 -65 0
9 -32 -40 59 -62 65 0
9 -32 -40 -59 62 65 0
9 -32 -40 -59 -62 -65 0
-9 32 40 59 62 65 0
-9 32 40 59 -62 -65 0
-9 32 40 -59 62 -65 0
-9 32 40 -59 -62 65 0
-9 32 -40 59 62 -65 0
-9 32 -40 59 -62 65 0
-9 32 -40 -59 62 65 0
-9 32 -40 -59 -62 -65 0
-9 -32 40 59 62 -65 0
-9 -32 40 59 -62 65 0
-9 -32 40 -59 62 65 0
-9 -32 40 -59 -62 -65 0
-9 -32 -40 59 62 65 0
-9 -32 -40 59 -62 -65 0
-9 -32 -40 -59 62 -65 0
-9 -32 -40 -59 -62 65 0
10 33 45 66 67 -68 0
10 33 45 66 -67 68 0
10 33 45 -66 67 68 0
10 33 45 -66 -67 -68 0
10 33 -45 66 67 68 0
10 33 -45 66 -67 -68 0
10 33 -45 -66 67 -68 0
10 33 -45 -66 -67 68 0
10 -33 45 66 67 68 0
10 -33 45 66 -67 -68 0
10 -33 45 -66 67 -68 0
10 -33 45 -66 -67 68 0
10 -33 -45 66 67 -68 0
10 -33 -45 66 -67 68 0
10 -33 -45 -66 67 68 0
10 -33 -45 -66 -67 -68 0
-10 33 45 66 67 68 0
-10 33 45 66 -67 -68 0
-10 33 45 -66 67 -68 0
-10 33 45 -66 -67 68 0
-10 33 -45 66 67 -68 0
-10 33 -45 66 -67 68 0
-10 33 -45 -66 67 68 0
-10 33 -45 -66 -67 -68 0
-10 -33 45 66 67 -68 0
-10 -33 45 66 -67 68 0
-10 -33 45 -66 67 68 0
-10 -33 45 -66 -67 -68 0
-10 -33 -45 66 67 68 0
-10 -33 -45 66 -67 -68 0
-10 -33 -45 -66 67 -68 0
-10 -33 -45 -66 -67 68 0
46 60 69 70 71 -72 0
46 60 69 70 -71 72 0
46 60 69 -70 71 72 0
46 60 69 -70 -71 -72 0
46 60 -69 70 71 72 0
46 60 -69 70 -71 -72 0
46 60 -69 -70 71 -72 0
46 60 -69 -70 -71 72 0
46 -60 69 70 71 72 0
46 -60 69 70 -71 -72 0
46 -60 69 -70 71 -72 0
46 -60 69 -70 -71 72 0
46 -60 -69 70 71 -72 0
46 -60 -69 70 -71 72 0
46 -60 -69 -70 71 72 0
46 -60 -69 -70 -71 -72 0
-46 60 69 70 71 72 0
-46 60 69 70 -71 -72 0
-46 60 69 -70 71 -72 0
-46 60 69 -70 -71 72 0
-46 60 -69 70 71 -72 0
-46 60 -69 70 -71 72 0
-46 60 -69 -70 71 72 0
-46 60 -69 -70 -71 -72 0
-46 -60 69 70 71 -72 0
-46 -60 69 70 -71 72 0
-46 -60 69 -70 71 72 0
-46 -60 69 -70 -71 -72 0
-46 -60 -69 70 71 72 0
-46 -60 -69 70 -71 -72 0
-46 -60 -69 -70 71 -72 0
-46 -60 -69 -70 -71 72 0
16 41 51 54 61 -69 0
16 41 51 54 -61 69 0
16 41 51 -54 61 69 0
16 41 51 -54 -61 -69 0
16 41 -51 54 61 69 0
16 41 -51 54 -61 -69 0
16 41 -51 -54 61 -69 0
16 41 -51 -54 -61 69 0
16 -41 51 54 61 69 0
16 -41 51 54 -61 -69 0
16 -41 51 -54 61 -69 0
16 -41 51 -54 -61 69 0
16 -41 -51 54 61 -69 0
16 -41 -51 54 -61 69 0
16 -41 -51 -54 61 69 0
16 -41 -51 -54 -61 -69 0
-16 41 51 54 61 69 0
-16 41 51 54 -61 -69 0
-16 41 51 -54 61 -69 0
-16 41 51 -54 -61 69 0
-16 41 -51 54 61 -69 0
-16 41 -51 54 -61 69 0
-16 41 -51 -54 61 69 0
-16 41 -51 -54 -61 -69 0
-16 -41 51 54 61 -69 0
-16 -41 51 54 -61 69 0
-16 -41 51 -54 61 69 0
-16 -41 51 -54 -61 -69 0
-16 -41 -51 54 61 69 0
-16 -41 -51 54 -61 -69 0
-16 -41 -51 -54 61 -69 0
-16 -41 -51 -54 -61 69 0
4 17 21 56 66 -70 0
4 17 21 56 -66 70 0
4 17 21 -56 66 70 0
4 17 21 -56 -66 -70 0
4 17 -21 56 66 70 0
4 17 -21 56 -66 -70 0
4 17 -21 -56 66 -70 0
4 17 -21 -56 -66 70 0
4 -17 21 56 66 70 0
4 -17 21 56 -66 -70 0
4 -17 21 -56 66 -70 0
4 -17 21 -56 -66 70 0
4 -17 -21 56 66 -70 0
4 -17 -21 56 -66 70 0
4 -17 -21 -56 66 70 0
4 -17 -21 -56 -66 -70 0
-4 17 21 56 66 70 0
-4 17 21 56 -66 -70 0
-4 17 21 -56 66 -70 0
-4 17 21 -56 -66 70 0
-4 17 -21 56 66 -70 0
-4 17 -21 56 -66 70 0
-4 17 -21 -56 66 70 0
-4 17 -21 -56 -66 -70 0
-4 -17 21 56 66 -70 0
-4 -17 21 56 -66 70 0
-4 -17 21 -56 66 70 0
-4 -17 21 -56 -66 -70 0
-4 -17 -21 56 66 70 0
-4 -17 -21 56 -66 -70 0
-4 -17 -21 -56 66 -70 0
-4 -17 -21 -56 -66 70 0
5 22 42 63 65 73 0
5 22 42 63 -65 -73 0
5 22 42 -63 65 -73 0
5 22 42 -63 -65 73 0
5 22 -42 63 65 -73 0
5 22 -42 63 -65 73 0
5 22 -42 -63 65 73 0
5 22 -42 -63 -65 -73 0
5 -22 42 63 65 -73 0
5 -22 42 63 -65 73 0
5 -22 42 -63 65 73 0
5 -22 42 -63 -65 -73 0
5 -22 -42 63 65 73 0
5 -22 -42 63 -65 -73 0
5 -22 -42 -63 65 -73 0
5 -22 -42 -63 -65 73 0
-5 22 42 63 65 -73 0
-5 22 42 63 -65 73 0
-5 22 42 -63 65 73 0
-5 22 42 -63 -65 -73 0
-5 22 -42 63 65 73 0
-5 22 -42 63 -65 -73 0
-5 22 -42 -63 65 -73 0
-5 22 -42 -63 -65 73 0
-5 -22 42 63 65 73 0
-5 -22 42 63 -65 -73 0
-5 -22 42 -63 65 -73 0
-5 -22 42 -63 -65 73 0
-5 -22 -42 63 65 -73 0
-5 -22 -42 63 -65 73 0
-5 -22 -42 -63 65 73 0
-5 -22 -42 -63 -65 -73 0
11 37 47 67 74 75 0
11 37 47 67 -74 -75 0
11 37 47 -67 74 -75 0
11 37 47 -67 -74 75 0
11 37 -47 67 74 -75 0
11 37 -47 67 -74 75 0
11 37 -47 -67 74 75 0
11 37 -47 -67 -74 -75 0
11 -37 47 67 74 -75 0
11 -37 47 67 -74 75 0
11 -37 47 -67 74 75 0
11 -37 47 -67 -74 -75 0
11 -37 -47 67 74 75 0
11 -37 -47 67 -74 -75 0
11 -37 -47 -67 74 -75 0
11 -37 -47 -67 -74 75 0
-11 37 47 67 74 -75 0
-11 37 47 67 -74 75 0
-11 37 47 -67 74 75 0
-11 37 47 -67 -74 -75 0
-11 37 -47 67 74 75 0
-11 37 -47 67 -74 -75 0
-11 37 -47 -67 74 -75 0
-11 37 -47 -67 -74 75 0
-11 -37 47 67 74 75 0
-11 -37 47 67 -74 -75 0
-11 -37 47 -67 74 -75 0
-11 -37 47 -67 -74 75 0
-11 -37 -47 67 74 -75 0
-11 -37 -47 67 -74 75 0
-11 -37 -47 -67 74 75 0
-11 -37 -47 -67 -74 -75 0
29 43 57 64 71 74 0
29 43 57 64 -71 -74 0
29 43 57 -64 71 -74 0
29 43 57 -64 -71 74 0
29 43 -57 64 71 -74 0
29 43 -57 64 -71 74 0
29 43 -57 -64 71 74 0
29 43 -57 -64 -71 -74 0
29 -43 57 64 71 -74 0
29 -43 57 64 -71 74 0
29 -43 57 -64 71 74 0
29 -43 57 -64 -71 -74 0
29 -43 -57 64 71 74 0
29 -43 -57 64 -71 -74 0
29 -43 -57 -64 71 -74 0
29 -43 -57 -64 -71 74 0
-29 43 57 64 71 -74 0
-29 43 57 64 -71 74 0
-29 43 57 -64 71 74 0
-29 43 57 -64 -71 -74 0
-29 43 -57 64 71 74 0
-29 43 -57 64 -71 -74 0
-29 43 -57 -64 71 -74 0
-29 43 -57 -64 -71 74 0
-29 -43 57 64 71 74 0
-29 -43 57 64 -71 -74 0
-29 -43 57 -64 71 -74 0
-29 -43 57 -64 -71 74 0
-29 -43 -57 64 71 -74 0
-29 -43 -57 64 -71 74 0
-29 -43 -57 -64 71 74 0
-29 -43 -57 -64 -71 -74 0
6 18 23 52 73 75 0
6 18 23 52 -73 -75 0
6 18 23 -52 73 -75 0
6 18 23 -52 -73 75 0
6 18 -23 52 73 -75 0
6 18 -23 52 -73 75 0
6 18 -23 -52 73 75 0
6 18 -23 -52 -73 -75 0
6 -18 23 52 73 -75 0
6 -18 23 52 -73 75 0
6 -18 23 -52 73 75 0
6 -18 23 -52 -73 -75 0
6 -18 -23 52 73 75 0
6 -18 -23 52 -73 -75 0
6 -18 -23 -52 73 -75 0
6 -18 -23 -52 -73 75 0
-6 18 23 52 73 -75 0
-6 18 23 52 -73 75 0
-6 18 23 -52 73 75 0
-6 18 23 -52 -73 -75 0
-6 18 -23 52 73 75 0
-6 18 -23 52 -73 -75 0
-6 18 -23 -52 73 -75 0
-6 18 -23 -52 -73 75 0
-6 -18 23 52 73 75 0
-6 -18 23 52 -73 -75 0
-6 -18 23 -52 73 -75 0
-6 -18 23 -52 -73 75 0
-6 -18 -23 52 73 -75 0
-6 -18 -23 52 -73 75 0
-6 -18 -23 -52 73 75 0
-6 -18 -23 -52 -73 -75 0
12 38 55 58 68 -72 0
12 38 55 58 -68 72 0
12 38 55 -58 68 72 0
12 38 55 -58 -68 -72 0
12 38 -55 58 68 72 0
12 38 -55 58 -68 -72 0
12 38 -55 -58 68 -72 0
12 38 -55 -58 -68 72 0
12 -38 55 58 68 72 0
12 -38 55 58 -68 -72 0
12 -38 55 -58 68 -72 0
12 -38 55 -58 -68 72 0
12 -38 -55 58 68 -72 0
12 -38 -55 58 -68 72 0
12 -38 -55 -58 68 72 0
12 -38 -55 -58 -68 -72 0
-12 38 55 58 68 72 0
-12 38 55 58 -68 -72 0
-12 38 55 -58 68 -72 0
-12 38 55 -58 -68 72 0
-12 38 -55 58 68 -72 0
-12 38 -55 58 -68 72 0
-12 38 -55 -58 68 72 0
-12 38 -55 -58 -68 -72 0
-12 -38 55 58 68 -72 0
-12 -38 55 58 -68 72 0
-12 -38 55 -58 68 72 0
-12 -38 55 -58 -68 -72 0
-12 -38 -55 58 68 72 0
-12 -38 -55 58 -68 -72 0
-12 -38 -55 -58 68 -72 0
-12 -38 -55 -58 -68 72 0
